1 1 -2 0
1 -1 -3 0
1 1 -4 0
1 2 -1 0
1 2 4 0
1 -5 6 0
1 -5 7 0
1 5 -8 0
1 -5 -9 0
1 5 -10 0
1 -5 -4 0
1 -11 12 0
1 -11 7 0
1 11 8 0
1 7 -13 0
1 -7 11 0
1 -7 14 0
1 4 13 0
1 4 11 0
1 4 -5 0
1 -15 16 0
1 -15 -17 0
1 15 -14 0
1 15 3 0
1 3 -18 0
1 3 -2 0
1 3 -1 0
1 -3 -19 0
1 20 -9 0
1 -13 -12 0
1 21 12 0
1 -21 -7 0
1 -22 -18 0
1 22 8 0
1 22 -21 0
1 22 4 0
1 -9 -23 0
1 -9 -24 0
1 9 25 0
1 9 -5 0
1 12 -23 0
1 12 -26 0
1 12 11 0
1 -12 25 0
1 -12 -21 0
1 12 -27 0
1 -8 28 0
1 -8 -29 0
1 -8 -22 0
1 8 11 0
1 8 -14 0
1 8 27 0
1 6 29 0
1 -6 11 0
1 -6 30 0
1 6 -21 0
1 -6 -20 0
1 -6 -5 0
1 -25 31 0
1 -25 32 0
1 -25 9 0
1 25 14 0
1 -33 -29 0
1 -33 34 0
1 -24 32 0
1 -24 35 0
1 24 -9 0
1 24 -36 0
1 23 36 0
1 -23 -34 0
1 -34 23 0
1 -34 -21 0
1 32 25 0
1 32 -21 0
1 32 34 0
1 36 -22 0
1 36 37 0
1 -36 -38 0
1 31 -23 0
1 -31 33 0
1 -31 -39 0
1 -31 -40 0
1 31 24 0
1 31 -21 0
1 31 41 0
1 -42 -43 0
1 -43 -44 0
1 43 45 0
1 -43 46 0
1 10 47 0
1 10 48 0
1 -10 49 0
1 10 -5 0
1 49 50 0
1 -44 -18 0
1 44 43 0
1 -44 51 0
1 44 52 0
1 -44 -10 0
1 44 -42 0
1 51 -44 0
1 51 53 0
1 51 52 0
1 -47 -54 0
1 47 55 0
1 -46 -47 0
1 -46 56 0
1 -46 54 0
1 -52 57 0
1 -52 20 0
1 -16 -44 0
1 16 -48 0
1 -16 -13 0
1 -16 58 0
1 -16 59 0
1 -16 -3 0
1 -60 -51 0
1 60 21 0
1 18 44 0
1 -18 -22 0
1 18 61 0
1 18 -59 0
1 18 3 0
1 -58 -28 0
1 -58 -16 0
1 -58 35 0
1 -58 -60 0
1 -57 -29 0
1 -57 -16 0
1 -57 58 0
1 -57 49 0
1 -57 -14 0
1 57 -62 0
1 57 -10 0
1 48 63 0
1 -48 64 0
1 48 -65 0
1 48 60 0
1 48 -52 0
1 48 10 0
1 -59 66 0
1 14 -58 0
1 14 15 0
1 14 7 0
1 14 57 0
1 29 -6 0
1 29 -58 0
1 -29 15 0
1 -29 -8 0
1 -29 57 0
1 -29 67 0
1 -35 -68 0
1 -35 67 0
1 -35 -69 0
1 35 19 0
1 -28 70 0
1 28 -8 0
1 -28 67 0
1 -61 -35 0
1 -61 -60 0
1 -61 71 0
1 -69 29 0
1 69 -18 0
1 -69 -61 0
1 69 72 0
1 -69 40 0
1 -69 -30 0
1 69 73 0
1 -69 -71 0
1 69 -27 0
1 74 -28 0
1 74 -72 0
1 -67 28 0
1 -67 -75 0
1 -67 -35 0
1 -67 -14 0
1 67 -76 0
1 30 -68 0
1 30 36 0
1 -30 27 0
1 -27 17 0
1 27 36 0
1 -27 69 0
1 40 77 0
1 40 26 0
1 40 36 0
1 41 -19 0
1 41 69 0
1 68 28 0
1 -68 -78 0
1 68 -39 0
1 68 79 0
1 70 80 0
1 70 -40 0
1 -70 30 0
1 17 -78 0
1 17 79 0
1 -19 72 0
1 19 -40 0
1 19 30 0
1 -19 -3 0
1 -39 70 0
1 39 81 0
1 38 70 0
1 38 -68 0
1 38 -71 0
1 80 -70 0
1 82 83 0
1 82 -84 0
1 -82 85 0
1 84 86 0
1 84 38 0
1 26 12 0
1 26 87 0
1 -26 -80 0
1 -26 -39 0
1 -26 40 0
1 -26 88 0
1 -26 89 0
1 -26 -82 0
1 81 78 0
1 -81 80 0
1 81 8 0
1 81 90 0
1 81 -82 0
1 81 -41 0
1 -77 -91 0
1 77 -80 0
1 77 88 0
1 -92 26 0
1 -92 -93 0
1 -92 -89 0
1 89 92 0
1 89 83 0
1 -89 -37 0
1 -89 79 0
1 -94 -95 0
1 94 -86 0
1 94 84 0
1 -94 -37 0
1 -94 85 0
1 86 26 0
1 86 -83 0
1 86 90 0
1 -86 -37 0
1 -85 -96 0
1 -85 82 0
1 -85 97 0
1 -83 -32 0
1 -83 92 0
1 83 -98 0
1 83 -99 0
1 -83 86 0
1 83 85 0
1 -37 -100 0
1 37 -92 0
1 37 88 0
1 37 -36 0
1 -37 -89 0
1 93 -96 0
1 93 -100 0
1 -93 94 0
1 93 -101 0
1 -93 -37 0
1 93 -89 0
1 -93 -82 0
1 -102 103 0
1 45 -102 0
1 104 105 0
1 -104 106 0
1 -104 -50 0
1 -104 107 0
1 104 108 0
1 -50 -49 0
1 -107 -56 0
1 -107 104 0
1 105 50 0
1 105 55 0
1 103 -109 0
1 103 50 0
1 -103 104 0
1 103 102 0
1 -55 106 0
1 -55 -107 0
1 -110 47 0
1 -110 -105 0
1 -110 111 0
1 110 -46 0
1 110 107 0
1 -110 55 0
1 -110 -112 0
1 -54 -113 0
1 -54 -47 0
1 54 105 0
1 -54 46 0
1 54 -108 0
1 56 113 0
1 -56 47 0
1 56 -105 0
1 56 -46 0
1 56 112 0
1 -112 114 0
1 112 115 0
1 112 -53 0
1 112 56 0
1 112 111 0
1 -112 -116 0
1 112 -64 0
1 112 -117 0
1 -111 114 0
1 111 -53 0
1 -111 116 0
1 111 112 0
1 -108 106 0
1 -108 118 0
1 -106 114 0
1 -106 110 0
1 106 -119 0
1 106 -54 0
1 65 47 0
1 -65 48 0
1 -65 120 0
1 65 -51 0
1 -65 -14 0
1 65 -112 0
1 65 121 0
1 53 -47 0
1 53 44 0
1 -53 -51 0
1 -53 -112 0
1 -64 -48 0
1 64 -111 0
1 -64 -59 0
1 115 -122 0
1 115 -48 0
1 -115 -120 0
1 115 -59 0
1 115 112 0
1 113 -115 0
1 113 -54 0
1 113 -123 0
1 -120 75 0
1 120 -65 0
1 -121 -124 0
1 -121 125 0
1 121 64 0
1 -121 54 0
1 121 -123 0
1 124 126 0
1 -124 127 0
1 124 -65 0
1 124 54 0
1 -63 113 0
1 63 128 0
1 63 -74 0
1 63 59 0
1 -129 58 0
1 -129 120 0
1 129 63 0
1 -129 -130 0
1 129 -131 0
1 75 -128 0
1 75 127 0
1 75 131 0
1 -75 66 0
1 76 113 0
1 76 -128 0
1 -76 132 0
1 76 -131 0
1 76 67 0
1 76 41 0
1 122 115 0
1 -122 131 0
1 131 129 0
1 -131 115 0
1 -131 133 0
1 -131 -134 0
1 -131 -72 0
1 -131 -51 0
1 -131 -135 0
1 131 136 0
1 -131 71 0
1 -131 76 0
1 128 -47 0
1 -128 -137 0
1 -128 125 0
1 -128 63 0
1 -128 -138 0
1 -128 -76 0
1 130 -129 0
1 130 -115 0
1 -130 -133 0
1 -130 139 0
1 -130 -140 0
1 -130 -76 0
1 -72 132 0
1 72 -61 0
1 -72 17 0
1 72 131 0
1 72 62 0
1 71 74 0
1 71 -72 0
1 -71 -66 0
1 71 -19 0
1 134 122 0
1 134 141 0
1 -134 142 0
1 134 66 0
1 -136 62 0
1 136 -138 0
1 136 -19 0
1 -143 -62 0
1 -143 58 0
1 -143 -72 0
1 -143 -79 0
1 62 -78 0
1 62 -143 0
1 -62 -75 0
1 -62 -144 0
1 -62 -90 0
1 -62 145 0
1 -62 71 0
1 132 144 0
1 132 -146 0
1 66 147 0
1 -66 133 0
1 -66 134 0
1 -66 -144 0
1 -66 71 0
1 66 76 0
1 78 -77 0
1 78 62 0
1 78 92 0
1 78 143 0
1 78 142 0
1 -78 17 0
1 78 81 0
1 -79 -135 0
1 95 148 0
1 95 149 0
1 -95 150 0
1 95 151 0
1 -95 62 0
1 95 -141 0
1 -90 148 0
1 90 77 0
1 -90 152 0
1 -90 -86 0
1 -90 62 0
1 -142 -78 0
1 142 -153 0
1 -142 90 0
1 -142 -73 0
1 73 154 0
1 73 -91 0
1 73 -95 0
1 -73 -134 0
1 -73 -142 0
1 -73 101 0
1 -150 -155 0
1 -150 156 0
1 150 -78 0
1 150 74 0
1 150 134 0
1 -150 -157 0
1 -141 -156 0
1 141 -95 0
1 -141 -78 0
1 141 -134 0
1 -141 157 0
1 -141 67 0
1 91 93 0
1 -91 37 0
1 91 73 0
1 91 158 0
1 -88 -148 0
1 88 -26 0
1 -88 -37 0
1 100 -159 0
1 -100 151 0
1 -100 -152 0
1 100 160 0
1 -100 -161 0
1 100 158 0
1 101 159 0
1 101 142 0
1 -101 151 0
1 101 152 0
1 -101 73 0
1 152 91 0
1 152 162 0
1 152 99 0
1 152 -90 0
1 -148 -95 0
1 148 -163 0
1 148 -99 0
1 148 -101 0
1 -151 95 0
1 -151 164 0
1 151 -153 0
1 -151 88 0
1 -151 90 0
1 151 -158 0
1 158 -154 0
1 -158 100 0
1 158 -163 0
1 -158 -151 0
1 -158 90 0
1 -158 165 0
1 96 -148 0
1 96 -159 0
1 -96 152 0
1 -96 -161 0
1 -99 159 0
1 -99 -87 0
1 99 93 0
1 -99 -153 0
1 -99 85 0
1 -166 152 0
1 166 167 0
1 -162 148 0
1 162 -98 0
1 -162 -97 0
1 161 96 0
1 161 -100 0
1 161 -84 0
1 161 -168 0
1 -87 96 0
1 87 100 0
1 87 26 0
1 87 99 0
1 87 -168 0
1 160 96 0
1 -160 -163 0
1 160 99 0
1 160 165 0
1 159 -100 0
1 159 -162 0
1 -159 -165 0
1 -169 -170 0
1 -169 -171 0
1 -172 87 0
1 -172 98 0
1 172 169 0
1 168 -161 0
1 -168 -171 0
1 -168 173 0
1 -174 -97 0
1 -174 170 0
1 98 97 0
1 98 -172 0
1 98 -162 0
1 171 -170 0
1 -171 169 0
1 171 166 0
1 -170 169 0
1 170 -166 0
1 116 175 0
1 -116 -106 0
1 116 108 0
1 114 175 0
1 114 -121 0
1 -127 109 0
1 127 118 0
1 127 176 0
1 -176 -175 0
1 176 -124 0
1 -177 -139 0
1 177 -125 0
1 177 -138 0
1 -177 -176 0
1 178 114 0
1 -178 179 0
1 178 -127 0
1 178 177 0
1 -109 114 0
1 -109 116 0
1 -109 103 0
1 109 -180 0
1 175 114 0
1 -175 181 0
1 175 -176 0
1 -125 -124 0
1 -125 -177 0
1 -125 118 0
1 125 117 0
1 123 113 0
1 123 121 0
1 -123 -182 0
1 -123 124 0
1 -123 -130 0
1 123 -71 0
1 139 -178 0
1 -139 -134 0
1 139 118 0
1 -139 138 0
1 138 -183 0
1 -138 178 0
1 138 -184 0
1 -117 -182 0
1 117 127 0
1 -117 146 0
1 117 112 0
1 -117 -123 0
1 -117 176 0
1 -182 117 0
1 118 123 0
1 -119 -139 0
1 -119 -127 0
1 119 118 0
1 119 185 0
1 119 -123 0
1 133 183 0
1 -133 -132 0
1 -133 126 0
1 -133 -66 0
1 -135 132 0
1 135 -133 0
1 -135 182 0
1 135 -130 0
1 135 131 0
1 -149 -95 0
1 -149 -126 0
1 146 182 0
1 146 -184 0
1 -146 -186 0
1 -183 187 0
1 183 156 0
1 -183 188 0
1 183 -146 0
1 -184 187 0
1 -184 -155 0
1 184 -139 0
1 184 -157 0
1 184 146 0
1 -184 135 0
1 -184 138 0
1 -186 -126 0
1 -186 -189 0
1 186 -185 0
1 186 146 0
1 186 138 0
1 -186 -121 0
1 126 -133 0
1 -126 -135 0
1 -156 -183 0
1 -156 -91 0
1 156 137 0
1 -156 143 0
1 -156 140 0
1 156 -144 0
1 156 190 0
1 144 183 0
1 -144 -191 0
1 -144 132 0
1 -144 -190 0
1 -155 183 0
1 -155 137 0
1 155 -191 0
1 -155 -192 0
1 -155 -150 0
1 -155 -157 0
1 -155 190 0
1 -155 145 0
1 155 -141 0
1 157 155 0
1 157 -101 0
1 157 190 0
1 -191 -156 0
1 -191 193 0
1 -191 164 0
1 -191 -144 0
1 191 190 0
1 190 -156 0
1 190 -191 0
1 190 -149 0
1 -190 -144 0
1 -137 -194 0
1 137 187 0
1 -137 -128 0
1 137 157 0
1 140 149 0
1 140 -193 0
1 -140 157 0
1 140 130 0
1 -154 96 0
1 154 187 0
1 -154 195 0
1 154 -151 0
1 154 190 0
1 154 -73 0
1 -153 -150 0
1 153 147 0
1 153 141 0
1 167 192 0
1 167 151 0
1 -167 -147 0
1 164 192 0
1 -164 162 0
1 -164 -196 0
1 164 -151 0
1 -164 -190 0
1 -164 197 0
1 -164 158 0
1 195 -154 0
1 195 -155 0
1 -195 -164 0
1 195 157 0
1 195 167 0
1 145 155 0
1 145 -153 0
1 -145 -157 0
1 -192 -154 0
1 -192 -155 0
1 -192 132 0
1 -192 -193 0
1 -192 164 0
1 -192 -153 0
1 192 167 0
1 -147 -154 0
1 -147 -66 0
1 -165 -159 0
1 -165 195 0
1 165 163 0
1 -165 198 0
1 165 -151 0
1 -165 -152 0
1 -165 -160 0
1 165 -199 0
1 165 169 0
1 165 197 0
1 -163 -148 0
1 -163 159 0
1 163 -198 0
1 163 193 0
1 -163 -152 0
1 163 145 0
1 173 195 0
1 173 199 0
1 -173 197 0
1 200 -174 0
1 200 -199 0
1 200 173 0
1 196 200 0
1 196 -197 0
1 -196 -173 0
1 -196 165 0
1 -196 167 0
1 197 200 0
1 197 -196 0
1 197 167 0
1 -198 200 0
1 198 199 0
1 -198 173 0
1 -198 165 0
1 -198 -167 0
1 -199 -200 0
1 -199 -198 0
1 199 -164 0
1 199 -165 0
1 -201 -156 0
1 201 -202 0
1 -201 179 0
1 -201 180 0
1 185 119 0
1 203 179 0
1 -203 -126 0
1 203 180 0
1 203 204 0
1 -189 203 0
1 -189 -202 0
1 -189 -205 0
1 189 206 0
1 189 157 0
1 -189 204 0
1 207 -188 0
1 179 194 0
1 -179 -201 0
1 -179 188 0
1 180 201 0
1 202 203 0
1 -202 -180 0
1 202 175 0
1 -202 -189 0
1 -202 185 0
1 -187 137 0
1 -187 179 0
1 187 -126 0
1 187 -184 0
1 -187 -207 0
1 -187 186 0
1 -188 -205 0
1 188 -153 0
1 188 184 0
1 188 140 0
1 -188 186 0
1 -194 137 0
1 -194 -179 0
1 -194 208 0
1 -194 -140 0
1 194 209 0
1 -210 211 0
1 -210 179 0
1 210 -205 0
1 210 140 0
1 -210 207 0
1 -204 -203 0
1 204 212 0
1 -204 193 0
1 -204 188 0
1 -206 -203 0
1 206 -210 0
1 -206 -204 0
1 -209 203 0
1 -209 205 0
1 -209 189 0
1 -205 -209 0
1 -193 -163 0
1 -193 206 0
1 -193 190 0
1 -193 -147 0
1 -213 211 0
1 213 -204 0
1 -212 -206 0
1 212 214 0
1 215 210 0
1 214 -213 0
1 -211 194 0
1 211 -208 0
1 -211 -213 0
1 208 -194 0
